g3 1 1 0	# problem unknown
 496 166 1 0 166 	# vars, constraints, objectives, ranges, eqns
 166 0 0 0 0 0	# nonlinear constrs, objs; ccons: lin, nonlin, nd, nzlb
 0 0	# network constraints: nonlinear, linear
 496 0 0 	# nonlinear vars in constraints, objectives, both
 0 0 0 1	# linear network variables; functions; arith, flags
 0 0 0 0 0 	# discrete variables: binary, integer, nonlinear (b,c,o)
 826 166 	# nonzeros in Jacobian, obj. gradient
 0 0	# max name lengths: constraints, variables
 0 0 0 0 0	# common exprs: b,c,o,c1,o1
C0
o54
3
o5
o0
v0
o2
n-1
n0.0
n2.0
o5
o0
v165
o2
n-1
n0.0
n2.0
o5
o0
v0
o2
n-1
n0.0
n2.0
C1
o54
3
o5
o0
v1
o2
n-1
v0
n2.0
o5
o0
v166
o2
n-1
v165
n2.0
o5
o0
v1
o2
n-1
v331
n2.0
C2
o54
3
o5
o0
v2
o2
n-1
v1
n2.0
o5
o0
v167
o2
n-1
v166
n2.0
o5
o0
v2
o2
n-1
v332
n2.0
C3
o54
3
o5
o0
v3
o2
n-1
v2
n2.0
o5
o0
v168
o2
n-1
v167
n2.0
o5
o0
v3
o2
n-1
v333
n2.0
C4
o54
3
o5
o0
v4
o2
n-1
v3
n2.0
o5
o0
v169
o2
n-1
v168
n2.0
o5
o0
v4
o2
n-1
v334
n2.0
C5
o54
3
o5
o0
v5
o2
n-1
v4
n2.0
o5
o0
v170
o2
n-1
v169
n2.0
o5
o0
v5
o2
n-1
v335
n2.0
C6
o54
3
o5
o0
v6
o2
n-1
v5
n2.0
o5
o0
v171
o2
n-1
v170
n2.0
o5
o0
v6
o2
n-1
v336
n2.0
C7
o54
3
o5
o0
v7
o2
n-1
v6
n2.0
o5
o0
v172
o2
n-1
v171
n2.0
o5
o0
v7
o2
n-1
v337
n2.0
C8
o54
3
o5
o0
v8
o2
n-1
v7
n2.0
o5
o0
v173
o2
n-1
v172
n2.0
o5
o0
v8
o2
n-1
v338
n2.0
C9
o54
3
o5
o0
v9
o2
n-1
v8
n2.0
o5
o0
v174
o2
n-1
v173
n2.0
o5
o0
v9
o2
n-1
v339
n2.0
C10
o54
3
o5
o0
v10
o2
n-1
v9
n2.0
o5
o0
v175
o2
n-1
v174
n2.0
o5
o0
v10
o2
n-1
v340
n2.0
C11
o54
3
o5
o0
v11
o2
n-1
v10
n2.0
o5
o0
v176
o2
n-1
v175
n2.0
o5
o0
v11
o2
n-1
v341
n2.0
C12
o54
3
o5
o0
v12
o2
n-1
v11
n2.0
o5
o0
v177
o2
n-1
v176
n2.0
o5
o0
v12
o2
n-1
v342
n2.0
C13
o54
3
o5
o0
v13
o2
n-1
v12
n2.0
o5
o0
v178
o2
n-1
v177
n2.0
o5
o0
v13
o2
n-1
v343
n2.0
C14
o54
3
o5
o0
v14
o2
n-1
v13
n2.0
o5
o0
v179
o2
n-1
v178
n2.0
o5
o0
v14
o2
n-1
v344
n2.0
C15
o54
3
o5
o0
v15
o2
n-1
v14
n2.0
o5
o0
v180
o2
n-1
v179
n2.0
o5
o0
v15
o2
n-1
v345
n2.0
C16
o54
3
o5
o0
v16
o2
n-1
v15
n2.0
o5
o0
v181
o2
n-1
v180
n2.0
o5
o0
v16
o2
n-1
v346
n2.0
C17
o54
3
o5
o0
v17
o2
n-1
v16
n2.0
o5
o0
v182
o2
n-1
v181
n2.0
o5
o0
v17
o2
n-1
v347
n2.0
C18
o54
3
o5
o0
v18
o2
n-1
v17
n2.0
o5
o0
v183
o2
n-1
v182
n2.0
o5
o0
v18
o2
n-1
v348
n2.0
C19
o54
3
o5
o0
v19
o2
n-1
v18
n2.0
o5
o0
v184
o2
n-1
v183
n2.0
o5
o0
v19
o2
n-1
v349
n2.0
C20
o54
3
o5
o0
v20
o2
n-1
v19
n2.0
o5
o0
v185
o2
n-1
v184
n2.0
o5
o0
v20
o2
n-1
v350
n2.0
C21
o54
3
o5
o0
v21
o2
n-1
v20
n2.0
o5
o0
v186
o2
n-1
v185
n2.0
o5
o0
v21
o2
n-1
v351
n2.0
C22
o54
3
o5
o0
v22
o2
n-1
v21
n2.0
o5
o0
v187
o2
n-1
v186
n2.0
o5
o0
v22
o2
n-1
v352
n2.0
C23
o54
3
o5
o0
v23
o2
n-1
v22
n2.0
o5
o0
v188
o2
n-1
v187
n2.0
o5
o0
v23
o2
n-1
v353
n2.0
C24
o54
3
o5
o0
v24
o2
n-1
v23
n2.0
o5
o0
v189
o2
n-1
v188
n2.0
o5
o0
v24
o2
n-1
v354
n2.0
C25
o54
3
o5
o0
v25
o2
n-1
v24
n2.0
o5
o0
v190
o2
n-1
v189
n2.0
o5
o0
v25
o2
n-1
v355
n2.0
C26
o54
3
o5
o0
v26
o2
n-1
v25
n2.0
o5
o0
v191
o2
n-1
v190
n2.0
o5
o0
v26
o2
n-1
v356
n2.0
C27
o54
3
o5
o0
v27
o2
n-1
v26
n2.0
o5
o0
v192
o2
n-1
v191
n2.0
o5
o0
v27
o2
n-1
v357
n2.0
C28
o54
3
o5
o0
v28
o2
n-1
v27
n2.0
o5
o0
v193
o2
n-1
v192
n2.0
o5
o0
v28
o2
n-1
v358
n2.0
C29
o54
3
o5
o0
v29
o2
n-1
v28
n2.0
o5
o0
v194
o2
n-1
v193
n2.0
o5
o0
v29
o2
n-1
v359
n2.0
C30
o54
3
o5
o0
v30
o2
n-1
v29
n2.0
o5
o0
v195
o2
n-1
v194
n2.0
o5
o0
v30
o2
n-1
v360
n2.0
C31
o54
3
o5
o0
v31
o2
n-1
v30
n2.0
o5
o0
v196
o2
n-1
v195
n2.0
o5
o0
v31
o2
n-1
v361
n2.0
C32
o54
3
o5
o0
v32
o2
n-1
v31
n2.0
o5
o0
v197
o2
n-1
v196
n2.0
o5
o0
v32
o2
n-1
v362
n2.0
C33
o54
3
o5
o0
v33
o2
n-1
v32
n2.0
o5
o0
v198
o2
n-1
v197
n2.0
o5
o0
v33
o2
n-1
v363
n2.0
C34
o54
3
o5
o0
v34
o2
n-1
v33
n2.0
o5
o0
v199
o2
n-1
v198
n2.0
o5
o0
v34
o2
n-1
v364
n2.0
C35
o54
3
o5
o0
v35
o2
n-1
v34
n2.0
o5
o0
v200
o2
n-1
v199
n2.0
o5
o0
v35
o2
n-1
v365
n2.0
C36
o54
3
o5
o0
v36
o2
n-1
v35
n2.0
o5
o0
v201
o2
n-1
v200
n2.0
o5
o0
v36
o2
n-1
v366
n2.0
C37
o54
3
o5
o0
v37
o2
n-1
v36
n2.0
o5
o0
v202
o2
n-1
v201
n2.0
o5
o0
v37
o2
n-1
v367
n2.0
C38
o54
3
o5
o0
v38
o2
n-1
v37
n2.0
o5
o0
v203
o2
n-1
v202
n2.0
o5
o0
v38
o2
n-1
v368
n2.0
C39
o54
3
o5
o0
v39
o2
n-1
v38
n2.0
o5
o0
v204
o2
n-1
v203
n2.0
o5
o0
v39
o2
n-1
v369
n2.0
C40
o54
3
o5
o0
v40
o2
n-1
v39
n2.0
o5
o0
v205
o2
n-1
v204
n2.0
o5
o0
v40
o2
n-1
v370
n2.0
C41
o54
3
o5
o0
v41
o2
n-1
v40
n2.0
o5
o0
v206
o2
n-1
v205
n2.0
o5
o0
v41
o2
n-1
v371
n2.0
C42
o54
3
o5
o0
v42
o2
n-1
v41
n2.0
o5
o0
v207
o2
n-1
v206
n2.0
o5
o0
v42
o2
n-1
v372
n2.0
C43
o54
3
o5
o0
v43
o2
n-1
v42
n2.0
o5
o0
v208
o2
n-1
v207
n2.0
o5
o0
v43
o2
n-1
v373
n2.0
C44
o54
3
o5
o0
v44
o2
n-1
v43
n2.0
o5
o0
v209
o2
n-1
v208
n2.0
o5
o0
v44
o2
n-1
v374
n2.0
C45
o54
3
o5
o0
v45
o2
n-1
v44
n2.0
o5
o0
v210
o2
n-1
v209
n2.0
o5
o0
v45
o2
n-1
v375
n2.0
C46
o54
3
o5
o0
v46
o2
n-1
v45
n2.0
o5
o0
v211
o2
n-1
v210
n2.0
o5
o0
v46
o2
n-1
v376
n2.0
C47
o54
3
o5
o0
v47
o2
n-1
v46
n2.0
o5
o0
v212
o2
n-1
v211
n2.0
o5
o0
v47
o2
n-1
v377
n2.0
C48
o54
3
o5
o0
v48
o2
n-1
v47
n2.0
o5
o0
v213
o2
n-1
v212
n2.0
o5
o0
v48
o2
n-1
v378
n2.0
C49
o54
3
o5
o0
v49
o2
n-1
v48
n2.0
o5
o0
v214
o2
n-1
v213
n2.0
o5
o0
v49
o2
n-1
v379
n2.0
C50
o54
3
o5
o0
v50
o2
n-1
v49
n2.0
o5
o0
v215
o2
n-1
v214
n2.0
o5
o0
v50
o2
n-1
v380
n2.0
C51
o54
3
o5
o0
v51
o2
n-1
v50
n2.0
o5
o0
v216
o2
n-1
v215
n2.0
o5
o0
v51
o2
n-1
v381
n2.0
C52
o54
3
o5
o0
v52
o2
n-1
v51
n2.0
o5
o0
v217
o2
n-1
v216
n2.0
o5
o0
v52
o2
n-1
v382
n2.0
C53
o54
3
o5
o0
v53
o2
n-1
v52
n2.0
o5
o0
v218
o2
n-1
v217
n2.0
o5
o0
v53
o2
n-1
v383
n2.0
C54
o54
3
o5
o0
v54
o2
n-1
v53
n2.0
o5
o0
v219
o2
n-1
v218
n2.0
o5
o0
v54
o2
n-1
v384
n2.0
C55
o54
3
o5
o0
v55
o2
n-1
v54
n2.0
o5
o0
v220
o2
n-1
v219
n2.0
o5
o0
v55
o2
n-1
v385
n2.0
C56
o54
3
o5
o0
v56
o2
n-1
v55
n2.0
o5
o0
v221
o2
n-1
v220
n2.0
o5
o0
v56
o2
n-1
v386
n2.0
C57
o54
3
o5
o0
v57
o2
n-1
v56
n2.0
o5
o0
v222
o2
n-1
v221
n2.0
o5
o0
v57
o2
n-1
v387
n2.0
C58
o54
3
o5
o0
v58
o2
n-1
v57
n2.0
o5
o0
v223
o2
n-1
v222
n2.0
o5
o0
v58
o2
n-1
v388
n2.0
C59
o54
3
o5
o0
v59
o2
n-1
v58
n2.0
o5
o0
v224
o2
n-1
v223
n2.0
o5
o0
v59
o2
n-1
v389
n2.0
C60
o54
3
o5
o0
v60
o2
n-1
v59
n2.0
o5
o0
v225
o2
n-1
v224
n2.0
o5
o0
v60
o2
n-1
v390
n2.0
C61
o54
3
o5
o0
v61
o2
n-1
v60
n2.0
o5
o0
v226
o2
n-1
v225
n2.0
o5
o0
v61
o2
n-1
v391
n2.0
C62
o54
3
o5
o0
v62
o2
n-1
v61
n2.0
o5
o0
v227
o2
n-1
v226
n2.0
o5
o0
v62
o2
n-1
v392
n2.0
C63
o54
3
o5
o0
v63
o2
n-1
v62
n2.0
o5
o0
v228
o2
n-1
v227
n2.0
o5
o0
v63
o2
n-1
v393
n2.0
C64
o54
3
o5
o0
v64
o2
n-1
v63
n2.0
o5
o0
v229
o2
n-1
v228
n2.0
o5
o0
v64
o2
n-1
v394
n2.0
C65
o54
3
o5
o0
v65
o2
n-1
v64
n2.0
o5
o0
v230
o2
n-1
v229
n2.0
o5
o0
v65
o2
n-1
v395
n2.0
C66
o54
3
o5
o0
v66
o2
n-1
v65
n2.0
o5
o0
v231
o2
n-1
v230
n2.0
o5
o0
v66
o2
n-1
v396
n2.0
C67
o54
3
o5
o0
v67
o2
n-1
v66
n2.0
o5
o0
v232
o2
n-1
v231
n2.0
o5
o0
v67
o2
n-1
v397
n2.0
C68
o54
3
o5
o0
v68
o2
n-1
v67
n2.0
o5
o0
v233
o2
n-1
v232
n2.0
o5
o0
v68
o2
n-1
v398
n2.0
C69
o54
3
o5
o0
v69
o2
n-1
v68
n2.0
o5
o0
v234
o2
n-1
v233
n2.0
o5
o0
v69
o2
n-1
v399
n2.0
C70
o54
3
o5
o0
v70
o2
n-1
v69
n2.0
o5
o0
v235
o2
n-1
v234
n2.0
o5
o0
v70
o2
n-1
v400
n2.0
C71
o54
3
o5
o0
v71
o2
n-1
v70
n2.0
o5
o0
v236
o2
n-1
v235
n2.0
o5
o0
v71
o2
n-1
v401
n2.0
C72
o54
3
o5
o0
v72
o2
n-1
v71
n2.0
o5
o0
v237
o2
n-1
v236
n2.0
o5
o0
v72
o2
n-1
v402
n2.0
C73
o54
3
o5
o0
v73
o2
n-1
v72
n2.0
o5
o0
v238
o2
n-1
v237
n2.0
o5
o0
v73
o2
n-1
v403
n2.0
C74
o54
3
o5
o0
v74
o2
n-1
v73
n2.0
o5
o0
v239
o2
n-1
v238
n2.0
o5
o0
v74
o2
n-1
v404
n2.0
C75
o54
3
o5
o0
v75
o2
n-1
v74
n2.0
o5
o0
v240
o2
n-1
v239
n2.0
o5
o0
v75
o2
n-1
v405
n2.0
C76
o54
3
o5
o0
v76
o2
n-1
v75
n2.0
o5
o0
v241
o2
n-1
v240
n2.0
o5
o0
v76
o2
n-1
v406
n2.0
C77
o54
3
o5
o0
v77
o2
n-1
v76
n2.0
o5
o0
v242
o2
n-1
v241
n2.0
o5
o0
v77
o2
n-1
v407
n2.0
C78
o54
3
o5
o0
v78
o2
n-1
v77
n2.0
o5
o0
v243
o2
n-1
v242
n2.0
o5
o0
v78
o2
n-1
v408
n2.0
C79
o54
3
o5
o0
v79
o2
n-1
v78
n2.0
o5
o0
v244
o2
n-1
v243
n2.0
o5
o0
v79
o2
n-1
v409
n2.0
C80
o54
3
o5
o0
v80
o2
n-1
v79
n2.0
o5
o0
v245
o2
n-1
v244
n2.0
o5
o0
v80
o2
n-1
v410
n2.0
C81
o54
3
o5
o0
v81
o2
n-1
v80
n2.0
o5
o0
v246
o2
n-1
v245
n2.0
o5
o0
v81
o2
n-1
v411
n2.0
C82
o54
3
o5
o0
v82
o2
n-1
v81
n2.0
o5
o0
v247
o2
n-1
v246
n2.0
o5
o0
v82
o2
n-1
v412
n2.0
C83
o54
3
o5
o0
v83
o2
n-1
v82
n2.0
o5
o0
v248
o2
n-1
v247
n2.0
o5
o0
v83
o2
n-1
v413
n2.0
C84
o54
3
o5
o0
v84
o2
n-1
v83
n2.0
o5
o0
v249
o2
n-1
v248
n2.0
o5
o0
v84
o2
n-1
v414
n2.0
C85
o54
3
o5
o0
v85
o2
n-1
v84
n2.0
o5
o0
v250
o2
n-1
v249
n2.0
o5
o0
v85
o2
n-1
v415
n2.0
C86
o54
3
o5
o0
v86
o2
n-1
v85
n2.0
o5
o0
v251
o2
n-1
v250
n2.0
o5
o0
v86
o2
n-1
v416
n2.0
C87
o54
3
o5
o0
v87
o2
n-1
v86
n2.0
o5
o0
v252
o2
n-1
v251
n2.0
o5
o0
v87
o2
n-1
v417
n2.0
C88
o54
3
o5
o0
v88
o2
n-1
v87
n2.0
o5
o0
v253
o2
n-1
v252
n2.0
o5
o0
v88
o2
n-1
v418
n2.0
C89
o54
3
o5
o0
v89
o2
n-1
v88
n2.0
o5
o0
v254
o2
n-1
v253
n2.0
o5
o0
v89
o2
n-1
v419
n2.0
C90
o54
3
o5
o0
v90
o2
n-1
v89
n2.0
o5
o0
v255
o2
n-1
v254
n2.0
o5
o0
v90
o2
n-1
v420
n2.0
C91
o54
3
o5
o0
v91
o2
n-1
v90
n2.0
o5
o0
v256
o2
n-1
v255
n2.0
o5
o0
v91
o2
n-1
v421
n2.0
C92
o54
3
o5
o0
v92
o2
n-1
v91
n2.0
o5
o0
v257
o2
n-1
v256
n2.0
o5
o0
v92
o2
n-1
v422
n2.0
C93
o54
3
o5
o0
v93
o2
n-1
v92
n2.0
o5
o0
v258
o2
n-1
v257
n2.0
o5
o0
v93
o2
n-1
v423
n2.0
C94
o54
3
o5
o0
v94
o2
n-1
v93
n2.0
o5
o0
v259
o2
n-1
v258
n2.0
o5
o0
v94
o2
n-1
v424
n2.0
C95
o54
3
o5
o0
v95
o2
n-1
v94
n2.0
o5
o0
v260
o2
n-1
v259
n2.0
o5
o0
v95
o2
n-1
v425
n2.0
C96
o54
3
o5
o0
v96
o2
n-1
v95
n2.0
o5
o0
v261
o2
n-1
v260
n2.0
o5
o0
v96
o2
n-1
v426
n2.0
C97
o54
3
o5
o0
v97
o2
n-1
v96
n2.0
o5
o0
v262
o2
n-1
v261
n2.0
o5
o0
v97
o2
n-1
v427
n2.0
C98
o54
3
o5
o0
v98
o2
n-1
v97
n2.0
o5
o0
v263
o2
n-1
v262
n2.0
o5
o0
v98
o2
n-1
v428
n2.0
C99
o54
3
o5
o0
v99
o2
n-1
v98
n2.0
o5
o0
v264
o2
n-1
v263
n2.0
o5
o0
v99
o2
n-1
v429
n2.0
C100
o54
3
o5
o0
v100
o2
n-1
v99
n2.0
o5
o0
v265
o2
n-1
v264
n2.0
o5
o0
v100
o2
n-1
v430
n2.0
C101
o54
3
o5
o0
v101
o2
n-1
v100
n2.0
o5
o0
v266
o2
n-1
v265
n2.0
o5
o0
v101
o2
n-1
v431
n2.0
C102
o54
3
o5
o0
v102
o2
n-1
v101
n2.0
o5
o0
v267
o2
n-1
v266
n2.0
o5
o0
v102
o2
n-1
v432
n2.0
C103
o54
3
o5
o0
v103
o2
n-1
v102
n2.0
o5
o0
v268
o2
n-1
v267
n2.0
o5
o0
v103
o2
n-1
v433
n2.0
C104
o54
3
o5
o0
v104
o2
n-1
v103
n2.0
o5
o0
v269
o2
n-1
v268
n2.0
o5
o0
v104
o2
n-1
v434
n2.0
C105
o54
3
o5
o0
v105
o2
n-1
v104
n2.0
o5
o0
v270
o2
n-1
v269
n2.0
o5
o0
v105
o2
n-1
v435
n2.0
C106
o54
3
o5
o0
v106
o2
n-1
v105
n2.0
o5
o0
v271
o2
n-1
v270
n2.0
o5
o0
v106
o2
n-1
v436
n2.0
C107
o54
3
o5
o0
v107
o2
n-1
v106
n2.0
o5
o0
v272
o2
n-1
v271
n2.0
o5
o0
v107
o2
n-1
v437
n2.0
C108
o54
3
o5
o0
v108
o2
n-1
v107
n2.0
o5
o0
v273
o2
n-1
v272
n2.0
o5
o0
v108
o2
n-1
v438
n2.0
C109
o54
3
o5
o0
v109
o2
n-1
v108
n2.0
o5
o0
v274
o2
n-1
v273
n2.0
o5
o0
v109
o2
n-1
v439
n2.0
C110
o54
3
o5
o0
v110
o2
n-1
v109
n2.0
o5
o0
v275
o2
n-1
v274
n2.0
o5
o0
v110
o2
n-1
v440
n2.0
C111
o54
3
o5
o0
v111
o2
n-1
v110
n2.0
o5
o0
v276
o2
n-1
v275
n2.0
o5
o0
v111
o2
n-1
v441
n2.0
C112
o54
3
o5
o0
v112
o2
n-1
v111
n2.0
o5
o0
v277
o2
n-1
v276
n2.0
o5
o0
v112
o2
n-1
v442
n2.0
C113
o54
3
o5
o0
v113
o2
n-1
v112
n2.0
o5
o0
v278
o2
n-1
v277
n2.0
o5
o0
v113
o2
n-1
v443
n2.0
C114
o54
3
o5
o0
v114
o2
n-1
v113
n2.0
o5
o0
v279
o2
n-1
v278
n2.0
o5
o0
v114
o2
n-1
v444
n2.0
C115
o54
3
o5
o0
v115
o2
n-1
v114
n2.0
o5
o0
v280
o2
n-1
v279
n2.0
o5
o0
v115
o2
n-1
v445
n2.0
C116
o54
3
o5
o0
v116
o2
n-1
v115
n2.0
o5
o0
v281
o2
n-1
v280
n2.0
o5
o0
v116
o2
n-1
v446
n2.0
C117
o54
3
o5
o0
v117
o2
n-1
v116
n2.0
o5
o0
v282
o2
n-1
v281
n2.0
o5
o0
v117
o2
n-1
v447
n2.0
C118
o54
3
o5
o0
v118
o2
n-1
v117
n2.0
o5
o0
v283
o2
n-1
v282
n2.0
o5
o0
v118
o2
n-1
v448
n2.0
C119
o54
3
o5
o0
v119
o2
n-1
v118
n2.0
o5
o0
v284
o2
n-1
v283
n2.0
o5
o0
v119
o2
n-1
v449
n2.0
C120
o54
3
o5
o0
v120
o2
n-1
v119
n2.0
o5
o0
v285
o2
n-1
v284
n2.0
o5
o0
v120
o2
n-1
v450
n2.0
C121
o54
3
o5
o0
v121
o2
n-1
v120
n2.0
o5
o0
v286
o2
n-1
v285
n2.0
o5
o0
v121
o2
n-1
v451
n2.0
C122
o54
3
o5
o0
v122
o2
n-1
v121
n2.0
o5
o0
v287
o2
n-1
v286
n2.0
o5
o0
v122
o2
n-1
v452
n2.0
C123
o54
3
o5
o0
v123
o2
n-1
v122
n2.0
o5
o0
v288
o2
n-1
v287
n2.0
o5
o0
v123
o2
n-1
v453
n2.0
C124
o54
3
o5
o0
v124
o2
n-1
v123
n2.0
o5
o0
v289
o2
n-1
v288
n2.0
o5
o0
v124
o2
n-1
v454
n2.0
C125
o54
3
o5
o0
v125
o2
n-1
v124
n2.0
o5
o0
v290
o2
n-1
v289
n2.0
o5
o0
v125
o2
n-1
v455
n2.0
C126
o54
3
o5
o0
v126
o2
n-1
v125
n2.0
o5
o0
v291
o2
n-1
v290
n2.0
o5
o0
v126
o2
n-1
v456
n2.0
C127
o54
3
o5
o0
v127
o2
n-1
v126
n2.0
o5
o0
v292
o2
n-1
v291
n2.0
o5
o0
v127
o2
n-1
v457
n2.0
C128
o54
3
o5
o0
v128
o2
n-1
v127
n2.0
o5
o0
v293
o2
n-1
v292
n2.0
o5
o0
v128
o2
n-1
v458
n2.0
C129
o54
3
o5
o0
v129
o2
n-1
v128
n2.0
o5
o0
v294
o2
n-1
v293
n2.0
o5
o0
v129
o2
n-1
v459
n2.0
C130
o54
3
o5
o0
v130
o2
n-1
v129
n2.0
o5
o0
v295
o2
n-1
v294
n2.0
o5
o0
v130
o2
n-1
v460
n2.0
C131
o54
3
o5
o0
v131
o2
n-1
v130
n2.0
o5
o0
v296
o2
n-1
v295
n2.0
o5
o0
v131
o2
n-1
v461
n2.0
C132
o54
3
o5
o0
v132
o2
n-1
v131
n2.0
o5
o0
v297
o2
n-1
v296
n2.0
o5
o0
v132
o2
n-1
v462
n2.0
C133
o54
3
o5
o0
v133
o2
n-1
v132
n2.0
o5
o0
v298
o2
n-1
v297
n2.0
o5
o0
v133
o2
n-1
v463
n2.0
C134
o54
3
o5
o0
v134
o2
n-1
v133
n2.0
o5
o0
v299
o2
n-1
v298
n2.0
o5
o0
v134
o2
n-1
v464
n2.0
C135
o54
3
o5
o0
v135
o2
n-1
v134
n2.0
o5
o0
v300
o2
n-1
v299
n2.0
o5
o0
v135
o2
n-1
v465
n2.0
C136
o54
3
o5
o0
v136
o2
n-1
v135
n2.0
o5
o0
v301
o2
n-1
v300
n2.0
o5
o0
v136
o2
n-1
v466
n2.0
C137
o54
3
o5
o0
v137
o2
n-1
v136
n2.0
o5
o0
v302
o2
n-1
v301
n2.0
o5
o0
v137
o2
n-1
v467
n2.0
C138
o54
3
o5
o0
v138
o2
n-1
v137
n2.0
o5
o0
v303
o2
n-1
v302
n2.0
o5
o0
v138
o2
n-1
v468
n2.0
C139
o54
3
o5
o0
v139
o2
n-1
v138
n2.0
o5
o0
v304
o2
n-1
v303
n2.0
o5
o0
v139
o2
n-1
v469
n2.0
C140
o54
3
o5
o0
v140
o2
n-1
v139
n2.0
o5
o0
v305
o2
n-1
v304
n2.0
o5
o0
v140
o2
n-1
v470
n2.0
C141
o54
3
o5
o0
v141
o2
n-1
v140
n2.0
o5
o0
v306
o2
n-1
v305
n2.0
o5
o0
v141
o2
n-1
v471
n2.0
C142
o54
3
o5
o0
v142
o2
n-1
v141
n2.0
o5
o0
v307
o2
n-1
v306
n2.0
o5
o0
v142
o2
n-1
v472
n2.0
C143
o54
3
o5
o0
v143
o2
n-1
v142
n2.0
o5
o0
v308
o2
n-1
v307
n2.0
o5
o0
v143
o2
n-1
v473
n2.0
C144
o54
3
o5
o0
v144
o2
n-1
v143
n2.0
o5
o0
v309
o2
n-1
v308
n2.0
o5
o0
v144
o2
n-1
v474
n2.0
C145
o54
3
o5
o0
v145
o2
n-1
v144
n2.0
o5
o0
v310
o2
n-1
v309
n2.0
o5
o0
v145
o2
n-1
v475
n2.0
C146
o54
3
o5
o0
v146
o2
n-1
v145
n2.0
o5
o0
v311
o2
n-1
v310
n2.0
o5
o0
v146
o2
n-1
v476
n2.0
C147
o54
3
o5
o0
v147
o2
n-1
v146
n2.0
o5
o0
v312
o2
n-1
v311
n2.0
o5
o0
v147
o2
n-1
v477
n2.0
C148
o54
3
o5
o0
v148
o2
n-1
v147
n2.0
o5
o0
v313
o2
n-1
v312
n2.0
o5
o0
v148
o2
n-1
v478
n2.0
C149
o54
3
o5
o0
v149
o2
n-1
v148
n2.0
o5
o0
v314
o2
n-1
v313
n2.0
o5
o0
v149
o2
n-1
v479
n2.0
C150
o54
3
o5
o0
v150
o2
n-1
v149
n2.0
o5
o0
v315
o2
n-1
v314
n2.0
o5
o0
v150
o2
n-1
v480
n2.0
C151
o54
3
o5
o0
v151
o2
n-1
v150
n2.0
o5
o0
v316
o2
n-1
v315
n2.0
o5
o0
v151
o2
n-1
v481
n2.0
C152
o54
3
o5
o0
v152
o2
n-1
v151
n2.0
o5
o0
v317
o2
n-1
v316
n2.0
o5
o0
v152
o2
n-1
v482
n2.0
C153
o54
3
o5
o0
v153
o2
n-1
v152
n2.0
o5
o0
v318
o2
n-1
v317
n2.0
o5
o0
v153
o2
n-1
v483
n2.0
C154
o54
3
o5
o0
v154
o2
n-1
v153
n2.0
o5
o0
v319
o2
n-1
v318
n2.0
o5
o0
v154
o2
n-1
v484
n2.0
C155
o54
3
o5
o0
v155
o2
n-1
v154
n2.0
o5
o0
v320
o2
n-1
v319
n2.0
o5
o0
v155
o2
n-1
v485
n2.0
C156
o54
3
o5
o0
v156
o2
n-1
v155
n2.0
o5
o0
v321
o2
n-1
v320
n2.0
o5
o0
v156
o2
n-1
v486
n2.0
C157
o54
3
o5
o0
v157
o2
n-1
v156
n2.0
o5
o0
v322
o2
n-1
v321
n2.0
o5
o0
v157
o2
n-1
v487
n2.0
C158
o54
3
o5
o0
v158
o2
n-1
v157
n2.0
o5
o0
v323
o2
n-1
v322
n2.0
o5
o0
v158
o2
n-1
v488
n2.0
C159
o54
3
o5
o0
v159
o2
n-1
v158
n2.0
o5
o0
v324
o2
n-1
v323
n2.0
o5
o0
v159
o2
n-1
v489
n2.0
C160
o54
3
o5
o0
v160
o2
n-1
v159
n2.0
o5
o0
v325
o2
n-1
v324
n2.0
o5
o0
v160
o2
n-1
v490
n2.0
C161
o54
3
o5
o0
v161
o2
n-1
v160
n2.0
o5
o0
v326
o2
n-1
v325
n2.0
o5
o0
v161
o2
n-1
v491
n2.0
C162
o54
3
o5
o0
v162
o2
n-1
v161
n2.0
o5
o0
v327
o2
n-1
v326
n2.0
o5
o0
v162
o2
n-1
v492
n2.0
C163
o54
3
o5
o0
v163
o2
n-1
v162
n2.0
o5
o0
v328
o2
n-1
v327
n2.0
o5
o0
v163
o2
n-1
v493
n2.0
C164
o54
3
o5
o0
v164
o2
n-1
v163
n2.0
o5
o0
v329
o2
n-1
v328
n2.0
o5
o0
v164
o2
n-1
v494
n2.0
C165
o54
3
o5
o0
n99.6
o2
n-1
v164
n2.0
o5
o0
v330
o2
n-1
v329
n2.0
o5
o0
n99.6
o2
n-1
v495
n2.0
O0 0
n0
x496
0 0.6
1 1.2
2 1.7999999999999998
3 2.4
4 3.0
5 3.5999999999999996
6 4.199999999999999
7 4.8
8 5.3999999999999995
9 6.0
10 6.6
11 7.199999999999999
12 7.8
13 8.399999999999999
14 9.0
15 9.6
16 10.2
17 10.799999999999999
18 11.399999999999999
19 12.0
20 12.6
21 13.2
22 13.799999999999999
23 14.399999999999999
24 15.0
25 15.6
26 16.2
27 16.799999999999997
28 17.4
29 18.0
30 18.599999999999998
31 19.2
32 19.799999999999997
33 20.4
34 21.0
35 21.599999999999998
36 22.2
37 22.799999999999997
38 23.4
39 24.0
40 24.599999999999998
41 25.2
42 25.8
43 26.4
44 27.0
45 27.599999999999998
46 28.2
47 28.799999999999997
48 29.4
49 30.0
50 30.599999999999998
51 31.2
52 31.799999999999997
53 32.4
54 33.0
55 33.599999999999994
56 34.199999999999996
57 34.8
58 35.4
59 36.0
60 36.599999999999994
61 37.199999999999996
62 37.8
63 38.4
64 39.0
65 39.599999999999994
66 40.199999999999996
67 40.8
68 41.4
69 42.0
70 42.599999999999994
71 43.199999999999996
72 43.8
73 44.4
74 45.0
75 45.599999999999994
76 46.199999999999996
77 46.8
78 47.4
79 48.0
80 48.599999999999994
81 49.199999999999996
82 49.8
83 50.4
84 51.0
85 51.6
86 52.199999999999996
87 52.8
88 53.4
89 54.0
90 54.6
91 55.199999999999996
92 55.8
93 56.4
94 57.0
95 57.599999999999994
96 58.199999999999996
97 58.8
98 59.4
99 60.0
100 60.599999999999994
101 61.199999999999996
102 61.8
103 62.4
104 63.0
105 63.599999999999994
106 64.19999999999999
107 64.8
108 65.39999999999999
109 66.0
110 66.6
111 67.19999999999999
112 67.8
113 68.39999999999999
114 69.0
115 69.6
116 70.19999999999999
117 70.8
118 71.39999999999999
119 72.0
120 72.6
121 73.19999999999999
122 73.8
123 74.39999999999999
124 75.0
125 75.6
126 76.19999999999999
127 76.8
128 77.39999999999999
129 78.0
130 78.6
131 79.19999999999999
132 79.8
133 80.39999999999999
134 81.0
135 81.6
136 82.19999999999999
137 82.8
138 83.39999999999999
139 84.0
140 84.6
141 85.19999999999999
142 85.8
143 86.39999999999999
144 87.0
145 87.6
146 88.19999999999999
147 88.8
148 89.39999999999999
149 90.0
150 90.6
151 91.19999999999999
152 91.8
153 92.39999999999999
154 93.0
155 93.6
156 94.19999999999999
157 94.8
158 95.39999999999999
159 96.0
160 96.6
161 97.19999999999999
162 97.8
163 98.39999999999999
164 99.0
165 0.0
166 0.0
167 0.0
168 0.0
169 0.0
170 0.0
171 0.0
172 0.0
173 0.0
174 0.0
175 0.0
176 0.0
177 0.0
178 0.0
179 0.0
180 0.0
181 0.0
182 0.0
183 0.0
184 0.0
185 0.0
186 0.0
187 0.0
188 0.0
189 0.0
190 0.0
191 0.0
192 0.0
193 0.0
194 0.0
195 0.0
196 0.0
197 0.0
198 0.0
199 0.0
200 0.0
201 0.0
202 0.0
203 0.0
204 0.0
205 0.0
206 0.0
207 0.0
208 0.0
209 0.0
210 0.0
211 0.0
212 0.0
213 0.0
214 0.0
215 0.0
216 0.0
217 0.0
218 0.0
219 0.0
220 0.0
221 0.0
222 0.0
223 0.0
224 0.0
225 0.0
226 0.0
227 0.0
228 0.0
229 0.0
230 0.0
231 0.0
232 0.0
233 0.0
234 0.0
235 0.0
236 0.0
237 0.0
238 0.0
239 0.0
240 0.0
241 0.0
242 0.0
243 0.0
244 0.0
245 0.0
246 0.0
247 0.0
248 0.0
249 0.0
250 0.0
251 0.0
252 0.0
253 0.0
254 0.0
255 0.0
256 0.0
257 0.0
258 0.0
259 0.0
260 0.0
261 0.0
262 0.0
263 0.0
264 0.0
265 0.0
266 0.0
267 0.0
268 0.0
269 0.0
270 0.0
271 0.0
272 0.0
273 0.0
274 0.0
275 0.0
276 0.0
277 0.0
278 0.0
279 0.0
280 0.0
281 0.0
282 0.0
283 0.0
284 0.0
285 0.0
286 0.0
287 0.0
288 0.0
289 0.0
290 0.0
291 0.0
292 0.0
293 0.0
294 0.0
295 0.0
296 0.0
297 0.0
298 0.0
299 0.0
300 0.0
301 0.0
302 0.0
303 0.0
304 0.0
305 0.0
306 0.0
307 0.0
308 0.0
309 0.0
310 0.0
311 0.0
312 0.0
313 0.0
314 0.0
315 0.0
316 0.0
317 0.0
318 0.0
319 0.0
320 0.0
321 0.0
322 0.0
323 0.0
324 0.0
325 0.0
326 0.0
327 0.0
328 0.0
329 0.0
330 0.0
331 0.0
332 0.0
333 0.0
334 0.0
335 0.0
336 0.0
337 0.0
338 0.0
339 0.0
340 0.0
341 0.0
342 0.0
343 0.0
344 0.0
345 0.0
346 0.0
347 0.0
348 0.0
349 0.0
350 0.0
351 0.0
352 0.0
353 0.0
354 0.0
355 0.0
356 0.0
357 0.0
358 0.0
359 0.0
360 0.0
361 0.0
362 0.0
363 0.0
364 0.0
365 0.0
366 0.0
367 0.0
368 0.0
369 0.0
370 0.0
371 0.0
372 0.0
373 0.0
374 0.0
375 0.0
376 0.0
377 0.0
378 0.0
379 0.0
380 0.0
381 0.0
382 0.0
383 0.0
384 0.0
385 0.0
386 0.0
387 0.0
388 0.0
389 0.0
390 0.0
391 0.0
392 0.0
393 0.0
394 0.0
395 0.0
396 0.0
397 0.0
398 0.0
399 0.0
400 0.0
401 0.0
402 0.0
403 0.0
404 0.0
405 0.0
406 0.0
407 0.0
408 0.0
409 0.0
410 0.0
411 0.0
412 0.0
413 0.0
414 0.0
415 0.0
416 0.0
417 0.0
418 0.0
419 0.0
420 0.0
421 0.0
422 0.0
423 0.0
424 0.0
425 0.0
426 0.0
427 0.0
428 0.0
429 0.0
430 0.0
431 0.0
432 0.0
433 0.0
434 0.0
435 0.0
436 0.0
437 0.0
438 0.0
439 0.0
440 0.0
441 0.0
442 0.0
443 0.0
444 0.0
445 0.0
446 0.0
447 0.0
448 0.0
449 0.0
450 0.0
451 0.0
452 0.0
453 0.0
454 0.0
455 0.0
456 0.0
457 0.0
458 0.0
459 0.0
460 0.0
461 0.0
462 0.0
463 0.0
464 0.0
465 0.0
466 0.0
467 0.0
468 0.0
469 0.0
470 0.0
471 0.0
472 0.0
473 0.0
474 0.0
475 0.0
476 0.0
477 0.0
478 0.0
479 0.0
480 0.0
481 0.0
482 0.0
483 0.0
484 0.0
485 0.0
486 0.0
487 0.0
488 0.0
489 0.0
490 0.0
491 0.0
492 0.0
493 0.0
494 0.0
495 0.0
r
4 1.0
4 1.0
4 1.0
4 1.0
4 1.0
4 1.0
4 1.0
4 1.0
4 1.0
4 1.0
4 1.0
4 1.0
4 1.0
4 1.0
4 1.0
4 1.0
4 1.0
4 1.0
4 1.0
4 1.0
4 1.0
4 1.0
4 1.0
4 1.0
4 1.0
4 1.0
4 1.0
4 1.0
4 1.0
4 1.0
4 1.0
4 1.0
4 1.0
4 1.0
4 1.0
4 1.0
4 1.0
4 1.0
4 1.0
4 1.0
4 1.0
4 1.0
4 1.0
4 1.0
4 1.0
4 1.0
4 1.0
4 1.0
4 1.0
4 1.0
4 1.0
4 1.0
4 1.0
4 1.0
4 1.0
4 1.0
4 1.0
4 1.0
4 1.0
4 1.0
4 1.0
4 1.0
4 1.0
4 1.0
4 1.0
4 1.0
4 1.0
4 1.0
4 1.0
4 1.0
4 1.0
4 1.0
4 1.0
4 1.0
4 1.0
4 1.0
4 1.0
4 1.0
4 1.0
4 1.0
4 1.0
4 1.0
4 1.0
4 1.0
4 1.0
4 1.0
4 1.0
4 1.0
4 1.0
4 1.0
4 1.0
4 1.0
4 1.0
4 1.0
4 1.0
4 1.0
4 1.0
4 1.0
4 1.0
4 1.0
4 1.0
4 1.0
4 1.0
4 1.0
4 1.0
4 1.0
4 1.0
4 1.0
4 1.0
4 1.0
4 1.0
4 1.0
4 1.0
4 1.0
4 1.0
4 1.0
4 1.0
4 1.0
4 1.0
4 1.0
4 1.0
4 1.0
4 1.0
4 1.0
4 1.0
4 1.0
4 1.0
4 1.0
4 1.0
4 1.0
4 1.0
4 1.0
4 1.0
4 1.0
4 1.0
4 1.0
4 1.0
4 1.0
4 1.0
4 1.0
4 1.0
4 1.0
4 1.0
4 1.0
4 1.0
4 1.0
4 1.0
4 1.0
4 1.0
4 1.0
4 1.0
4 1.0
4 1.0
4 1.0
4 1.0
4 1.0
4 1.0
4 1.0
4 1.0
4 1.0
4 1.0
4 1.0
4 1.0
4 1.0
4 1.0
4 1.0
b
3
3
3
3
3
3
3
3
3
3
3
3
3
3
3
3
3
3
3
3
3
3
3
3
3
3
3
3
3
3
3
3
3
3
3
3
3
3
3
3
3
3
3
3
3
3
3
3
3
3
3
3
3
3
3
3
3
3
3
3
3
3
3
3
3
3
3
3
3
3
3
3
3
3
3
3
3
3
3
3
3
3
3
3
3
3
3
3
3
3
3
3
3
3
3
3
3
3
3
3
3
3
3
3
3
3
3
3
3
3
3
3
3
3
3
3
3
3
3
3
3
3
3
3
3
3
3
3
3
3
3
3
3
3
3
3
3
3
3
3
3
3
3
3
3
3
3
3
3
3
3
3
3
3
3
3
3
3
3
3
3
3
3
3
3
3
3
3
3
3
3
3
3
3
3
3
3
3
3
3
3
3
3
3
3
3
3
3
3
3
3
3
3
3
3
3
3
3
3
3
3
3
3
3
3
3
3
3
3
3
3
3
3
3
3
3
3
3
3
3
3
3
3
3
3
3
3
3
3
3
3
3
3
3
3
3
3
3
3
3
3
3
3
3
3
3
3
3
3
3
3
3
3
3
3
3
3
3
3
3
3
3
3
3
3
3
3
3
3
3
3
3
3
3
3
3
3
3
3
3
3
3
3
3
3
3
3
3
3
3
3
3
3
3
3
3
3
3
3
3
3
3
3
3
3
3
3
3
3
3
3
3
3
3
3
3
3
3
3
3
3
3
3
3
3
3
3
3
3
3
3
3
3
3
3
3
3
3
3
3
3
3
3
3
3
3
3
3
3
3
3
3
3
3
3
3
3
3
3
3
3
3
3
3
3
3
3
3
3
3
3
3
3
3
3
3
3
3
3
3
3
3
3
3
3
3
3
3
3
3
3
3
3
3
3
3
3
3
3
3
3
3
3
3
3
3
3
3
3
3
3
3
3
3
3
3
3
3
3
3
3
3
3
3
3
3
3
3
3
3
3
3
3
3
3
3
3
3
3
3
3
3
3
3
3
3
3
3
3
3
3
3
3
3
3
3
3
3
3
3
3
3
3
3
3
3
3
3
3
3
3
3
3
3
3
3
3
3
3
3
3
3
3
3
3
3
3
3
3
3
3
3
3
3
3
3
k495
2
4
6
8
10
12
14
16
18
20
22
24
26
28
30
32
34
36
38
40
42
44
46
48
50
52
54
56
58
60
62
64
66
68
70
72
74
76
78
80
82
84
86
88
90
92
94
96
98
100
102
104
106
108
110
112
114
116
118
120
122
124
126
128
130
132
134
136
138
140
142
144
146
148
150
152
154
156
158
160
162
164
166
168
170
172
174
176
178
180
182
184
186
188
190
192
194
196
198
200
202
204
206
208
210
212
214
216
218
220
222
224
226
228
230
232
234
236
238
240
242
244
246
248
250
252
254
256
258
260
262
264
266
268
270
272
274
276
278
280
282
284
286
288
290
292
294
296
298
300
302
304
306
308
310
312
314
316
318
320
322
324
326
328
330
332
334
336
338
340
342
344
346
348
350
352
354
356
358
360
362
364
366
368
370
372
374
376
378
380
382
384
386
388
390
392
394
396
398
400
402
404
406
408
410
412
414
416
418
420
422
424
426
428
430
432
434
436
438
440
442
444
446
448
450
452
454
456
458
460
462
464
466
468
470
472
474
476
478
480
482
484
486
488
490
492
494
496
498
500
502
504
506
508
510
512
514
516
518
520
522
524
526
528
530
532
534
536
538
540
542
544
546
548
550
552
554
556
558
560
562
564
566
568
570
572
574
576
578
580
582
584
586
588
590
592
594
596
598
600
602
604
606
608
610
612
614
616
618
620
622
624
626
628
630
632
634
636
638
640
642
644
646
648
650
652
654
656
658
660
661
662
663
664
665
666
667
668
669
670
671
672
673
674
675
676
677
678
679
680
681
682
683
684
685
686
687
688
689
690
691
692
693
694
695
696
697
698
699
700
701
702
703
704
705
706
707
708
709
710
711
712
713
714
715
716
717
718
719
720
721
722
723
724
725
726
727
728
729
730
731
732
733
734
735
736
737
738
739
740
741
742
743
744
745
746
747
748
749
750
751
752
753
754
755
756
757
758
759
760
761
762
763
764
765
766
767
768
769
770
771
772
773
774
775
776
777
778
779
780
781
782
783
784
785
786
787
788
789
790
791
792
793
794
795
796
797
798
799
800
801
802
803
804
805
806
807
808
809
810
811
812
813
814
815
816
817
818
819
820
821
822
823
824
825
J0 2
0 0
165 0
J1 5
0 0
1 0
165 0
166 0
331 0
J2 5
1 0
2 0
166 0
167 0
332 0
J3 5
2 0
3 0
167 0
168 0
333 0
J4 5
3 0
4 0
168 0
169 0
334 0
J5 5
4 0
5 0
169 0
170 0
335 0
J6 5
5 0
6 0
170 0
171 0
336 0
J7 5
6 0
7 0
171 0
172 0
337 0
J8 5
7 0
8 0
172 0
173 0
338 0
J9 5
8 0
9 0
173 0
174 0
339 0
J10 5
9 0
10 0
174 0
175 0
340 0
J11 5
10 0
11 0
175 0
176 0
341 0
J12 5
11 0
12 0
176 0
177 0
342 0
J13 5
12 0
13 0
177 0
178 0
343 0
J14 5
13 0
14 0
178 0
179 0
344 0
J15 5
14 0
15 0
179 0
180 0
345 0
J16 5
15 0
16 0
180 0
181 0
346 0
J17 5
16 0
17 0
181 0
182 0
347 0
J18 5
17 0
18 0
182 0
183 0
348 0
J19 5
18 0
19 0
183 0
184 0
349 0
J20 5
19 0
20 0
184 0
185 0
350 0
J21 5
20 0
21 0
185 0
186 0
351 0
J22 5
21 0
22 0
186 0
187 0
352 0
J23 5
22 0
23 0
187 0
188 0
353 0
J24 5
23 0
24 0
188 0
189 0
354 0
J25 5
24 0
25 0
189 0
190 0
355 0
J26 5
25 0
26 0
190 0
191 0
356 0
J27 5
26 0
27 0
191 0
192 0
357 0
J28 5
27 0
28 0
192 0
193 0
358 0
J29 5
28 0
29 0
193 0
194 0
359 0
J30 5
29 0
30 0
194 0
195 0
360 0
J31 5
30 0
31 0
195 0
196 0
361 0
J32 5
31 0
32 0
196 0
197 0
362 0
J33 5
32 0
33 0
197 0
198 0
363 0
J34 5
33 0
34 0
198 0
199 0
364 0
J35 5
34 0
35 0
199 0
200 0
365 0
J36 5
35 0
36 0
200 0
201 0
366 0
J37 5
36 0
37 0
201 0
202 0
367 0
J38 5
37 0
38 0
202 0
203 0
368 0
J39 5
38 0
39 0
203 0
204 0
369 0
J40 5
39 0
40 0
204 0
205 0
370 0
J41 5
40 0
41 0
205 0
206 0
371 0
J42 5
41 0
42 0
206 0
207 0
372 0
J43 5
42 0
43 0
207 0
208 0
373 0
J44 5
43 0
44 0
208 0
209 0
374 0
J45 5
44 0
45 0
209 0
210 0
375 0
J46 5
45 0
46 0
210 0
211 0
376 0
J47 5
46 0
47 0
211 0
212 0
377 0
J48 5
47 0
48 0
212 0
213 0
378 0
J49 5
48 0
49 0
213 0
214 0
379 0
J50 5
49 0
50 0
214 0
215 0
380 0
J51 5
50 0
51 0
215 0
216 0
381 0
J52 5
51 0
52 0
216 0
217 0
382 0
J53 5
52 0
53 0
217 0
218 0
383 0
J54 5
53 0
54 0
218 0
219 0
384 0
J55 5
54 0
55 0
219 0
220 0
385 0
J56 5
55 0
56 0
220 0
221 0
386 0
J57 5
56 0
57 0
221 0
222 0
387 0
J58 5
57 0
58 0
222 0
223 0
388 0
J59 5
58 0
59 0
223 0
224 0
389 0
J60 5
59 0
60 0
224 0
225 0
390 0
J61 5
60 0
61 0
225 0
226 0
391 0
J62 5
61 0
62 0
226 0
227 0
392 0
J63 5
62 0
63 0
227 0
228 0
393 0
J64 5
63 0
64 0
228 0
229 0
394 0
J65 5
64 0
65 0
229 0
230 0
395 0
J66 5
65 0
66 0
230 0
231 0
396 0
J67 5
66 0
67 0
231 0
232 0
397 0
J68 5
67 0
68 0
232 0
233 0
398 0
J69 5
68 0
69 0
233 0
234 0
399 0
J70 5
69 0
70 0
234 0
235 0
400 0
J71 5
70 0
71 0
235 0
236 0
401 0
J72 5
71 0
72 0
236 0
237 0
402 0
J73 5
72 0
73 0
237 0
238 0
403 0
J74 5
73 0
74 0
238 0
239 0
404 0
J75 5
74 0
75 0
239 0
240 0
405 0
J76 5
75 0
76 0
240 0
241 0
406 0
J77 5
76 0
77 0
241 0
242 0
407 0
J78 5
77 0
78 0
242 0
243 0
408 0
J79 5
78 0
79 0
243 0
244 0
409 0
J80 5
79 0
80 0
244 0
245 0
410 0
J81 5
80 0
81 0
245 0
246 0
411 0
J82 5
81 0
82 0
246 0
247 0
412 0
J83 5
82 0
83 0
247 0
248 0
413 0
J84 5
83 0
84 0
248 0
249 0
414 0
J85 5
84 0
85 0
249 0
250 0
415 0
J86 5
85 0
86 0
250 0
251 0
416 0
J87 5
86 0
87 0
251 0
252 0
417 0
J88 5
87 0
88 0
252 0
253 0
418 0
J89 5
88 0
89 0
253 0
254 0
419 0
J90 5
89 0
90 0
254 0
255 0
420 0
J91 5
90 0
91 0
255 0
256 0
421 0
J92 5
91 0
92 0
256 0
257 0
422 0
J93 5
92 0
93 0
257 0
258 0
423 0
J94 5
93 0
94 0
258 0
259 0
424 0
J95 5
94 0
95 0
259 0
260 0
425 0
J96 5
95 0
96 0
260 0
261 0
426 0
J97 5
96 0
97 0
261 0
262 0
427 0
J98 5
97 0
98 0
262 0
263 0
428 0
J99 5
98 0
99 0
263 0
264 0
429 0
J100 5
99 0
100 0
264 0
265 0
430 0
J101 5
100 0
101 0
265 0
266 0
431 0
J102 5
101 0
102 0
266 0
267 0
432 0
J103 5
102 0
103 0
267 0
268 0
433 0
J104 5
103 0
104 0
268 0
269 0
434 0
J105 5
104 0
105 0
269 0
270 0
435 0
J106 5
105 0
106 0
270 0
271 0
436 0
J107 5
106 0
107 0
271 0
272 0
437 0
J108 5
107 0
108 0
272 0
273 0
438 0
J109 5
108 0
109 0
273 0
274 0
439 0
J110 5
109 0
110 0
274 0
275 0
440 0
J111 5
110 0
111 0
275 0
276 0
441 0
J112 5
111 0
112 0
276 0
277 0
442 0
J113 5
112 0
113 0
277 0
278 0
443 0
J114 5
113 0
114 0
278 0
279 0
444 0
J115 5
114 0
115 0
279 0
280 0
445 0
J116 5
115 0
116 0
280 0
281 0
446 0
J117 5
116 0
117 0
281 0
282 0
447 0
J118 5
117 0
118 0
282 0
283 0
448 0
J119 5
118 0
119 0
283 0
284 0
449 0
J120 5
119 0
120 0
284 0
285 0
450 0
J121 5
120 0
121 0
285 0
286 0
451 0
J122 5
121 0
122 0
286 0
287 0
452 0
J123 5
122 0
123 0
287 0
288 0
453 0
J124 5
123 0
124 0
288 0
289 0
454 0
J125 5
124 0
125 0
289 0
290 0
455 0
J126 5
125 0
126 0
290 0
291 0
456 0
J127 5
126 0
127 0
291 0
292 0
457 0
J128 5
127 0
128 0
292 0
293 0
458 0
J129 5
128 0
129 0
293 0
294 0
459 0
J130 5
129 0
130 0
294 0
295 0
460 0
J131 5
130 0
131 0
295 0
296 0
461 0
J132 5
131 0
132 0
296 0
297 0
462 0
J133 5
132 0
133 0
297 0
298 0
463 0
J134 5
133 0
134 0
298 0
299 0
464 0
J135 5
134 0
135 0
299 0
300 0
465 0
J136 5
135 0
136 0
300 0
301 0
466 0
J137 5
136 0
137 0
301 0
302 0
467 0
J138 5
137 0
138 0
302 0
303 0
468 0
J139 5
138 0
139 0
303 0
304 0
469 0
J140 5
139 0
140 0
304 0
305 0
470 0
J141 5
140 0
141 0
305 0
306 0
471 0
J142 5
141 0
142 0
306 0
307 0
472 0
J143 5
142 0
143 0
307 0
308 0
473 0
J144 5
143 0
144 0
308 0
309 0
474 0
J145 5
144 0
145 0
309 0
310 0
475 0
J146 5
145 0
146 0
310 0
311 0
476 0
J147 5
146 0
147 0
311 0
312 0
477 0
J148 5
147 0
148 0
312 0
313 0
478 0
J149 5
148 0
149 0
313 0
314 0
479 0
J150 5
149 0
150 0
314 0
315 0
480 0
J151 5
150 0
151 0
315 0
316 0
481 0
J152 5
151 0
152 0
316 0
317 0
482 0
J153 5
152 0
153 0
317 0
318 0
483 0
J154 5
153 0
154 0
318 0
319 0
484 0
J155 5
154 0
155 0
319 0
320 0
485 0
J156 5
155 0
156 0
320 0
321 0
486 0
J157 5
156 0
157 0
321 0
322 0
487 0
J158 5
157 0
158 0
322 0
323 0
488 0
J159 5
158 0
159 0
323 0
324 0
489 0
J160 5
159 0
160 0
324 0
325 0
490 0
J161 5
160 0
161 0
325 0
326 0
491 0
J162 5
161 0
162 0
326 0
327 0
492 0
J163 5
162 0
163 0
327 0
328 0
493 0
J164 5
163 0
164 0
328 0
329 0
494 0
J165 4
164 0
329 0
330 0
495 0
G0 166
165 29.54819277108434
166 29.54819277108434
167 29.54819277108434
168 29.54819277108434
169 29.54819277108434
170 29.54819277108434
171 29.54819277108434
172 29.54819277108434
173 29.54819277108434
174 29.54819277108434
175 29.54819277108434
176 29.54819277108434
177 29.54819277108434
178 29.54819277108434
179 29.54819277108434
180 29.54819277108434
181 29.54819277108434
182 29.54819277108434
183 29.54819277108434
184 29.54819277108434
185 29.54819277108434
186 29.54819277108434
187 29.54819277108434
188 29.54819277108434
189 29.54819277108434
190 29.54819277108434
191 29.54819277108434
192 29.54819277108434
193 29.54819277108434
194 29.54819277108434
195 29.54819277108434
196 29.54819277108434
197 29.54819277108434
198 29.54819277108434
199 29.54819277108434
200 29.54819277108434
201 29.54819277108434
202 29.54819277108434
203 29.54819277108434
204 29.54819277108434
205 29.54819277108434
206 29.54819277108434
207 29.54819277108434
208 29.54819277108434
209 29.54819277108434
210 29.54819277108434
211 29.54819277108434
212 29.54819277108434
213 29.54819277108434
214 29.54819277108434
215 29.54819277108434
216 29.54819277108434
217 29.54819277108434
218 29.54819277108434
219 29.54819277108434
220 29.54819277108434
221 29.54819277108434
222 29.54819277108434
223 29.54819277108434
224 29.54819277108434
225 29.54819277108434
226 29.54819277108434
227 29.54819277108434
228 29.54819277108434
229 29.54819277108434
230 29.54819277108434
231 29.54819277108434
232 29.54819277108434
233 29.54819277108434
234 29.54819277108434
235 29.54819277108434
236 29.54819277108434
237 29.54819277108434
238 29.54819277108434
239 29.54819277108434
240 29.54819277108434
241 29.54819277108434
242 29.54819277108434
243 29.54819277108434
244 29.54819277108434
245 29.54819277108434
246 29.54819277108434
247 29.54819277108434
248 29.54819277108434
249 29.54819277108434
250 29.54819277108434
251 29.54819277108434
252 29.54819277108434
253 29.54819277108434
254 29.54819277108434
255 29.54819277108434
256 29.54819277108434
257 29.54819277108434
258 29.54819277108434
259 29.54819277108434
260 29.54819277108434
261 29.54819277108434
262 29.54819277108434
263 29.54819277108434
264 29.54819277108434
265 29.54819277108434
266 29.54819277108434
267 29.54819277108434
268 29.54819277108434
269 29.54819277108434
270 29.54819277108434
271 29.54819277108434
272 29.54819277108434
273 29.54819277108434
274 29.54819277108434
275 29.54819277108434
276 29.54819277108434
277 29.54819277108434
278 29.54819277108434
279 29.54819277108434
280 29.54819277108434
281 29.54819277108434
282 29.54819277108434
283 29.54819277108434
284 29.54819277108434
285 29.54819277108434
286 29.54819277108434
287 29.54819277108434
288 29.54819277108434
289 29.54819277108434
290 29.54819277108434
291 29.54819277108434
292 29.54819277108434
293 29.54819277108434
294 29.54819277108434
295 29.54819277108434
296 29.54819277108434
297 29.54819277108434
298 29.54819277108434
299 29.54819277108434
300 29.54819277108434
301 29.54819277108434
302 29.54819277108434
303 29.54819277108434
304 29.54819277108434
305 29.54819277108434
306 29.54819277108434
307 29.54819277108434
308 29.54819277108434
309 29.54819277108434
310 29.54819277108434
311 29.54819277108434
312 29.54819277108434
313 29.54819277108434
314 29.54819277108434
315 29.54819277108434
316 29.54819277108434
317 29.54819277108434
318 29.54819277108434
319 29.54819277108434
320 29.54819277108434
321 29.54819277108434
322 29.54819277108434
323 29.54819277108434
324 29.54819277108434
325 29.54819277108434
326 29.54819277108434
327 29.54819277108434
328 29.54819277108434
329 29.54819277108434
330 14.77409638554217
